
Gurobi 9.1.1 (mac64, C++) logging started Mon Jan 16 17:03:59 2023


Gurobi 9.1.1 (mac64, C++) logging started Mon Jan 16 17:09:27 2023

Academic license - for non-commercial use only - expires 2024-01-11

Gurobi 9.1.1 (mac64, C++) logging started Mon Jan 16 17:09:27 2023

Academic license - for non-commercial use only - expires 2024-01-11

Gurobi 9.1.1 (mac64, C++) logging started Mon Jan 16 17:10:02 2023

Academic license - for non-commercial use only - expires 2024-01-11

Gurobi 9.1.1 (mac64, C++) logging started Mon Jan 16 17:10:02 2023

Academic license - for non-commercial use only - expires 2024-01-11

Gurobi 9.1.1 (mac64, C++) logging started Mon Jan 16 18:13:08 2023

Academic license - for non-commercial use only - expires 2024-01-11

Gurobi 9.1.1 (mac64, C++) logging started Mon Jan 16 18:13:08 2023

Academic license - for non-commercial use only - expires 2024-01-11

Gurobi 9.1.1 (mac64, C++) logging started Mon Jan 16 18:13:15 2023

Academic license - for non-commercial use only - expires 2024-01-11

Gurobi 9.1.1 (mac64, C++) logging started Mon Jan 16 18:13:15 2023

Academic license - for non-commercial use only - expires 2024-01-11

Gurobi 9.1.1 (mac64, C++) logging started Mon Jan 16 18:13:25 2023

Academic license - for non-commercial use only - expires 2024-01-11
